! Solver
&pdes
solver = "HD"
/

! Grid resolution
&grid
nx = 64
ny = 64
nz = 64
/

! Solver specific parameters
&HD
nu = 3.e-4
dorot = .false.
npassive = 0
/

! General configuration flags
&status
idir = "/ptmp/run"
odir = "/ptmp/run"
stat = 0         ! last binary file if restarting an old run
mult = 1         ! decreases the time step
bench = 1        ! benchmark mode if 1
outs = 0         ! controls the amount of output
dt = 7.5e-4      ! time step
step = 500       ! total number of steps
tstep = 500      ! number of steps between binary output
sstep = 250      ! number of steps between spectrum output
cstep = 10       ! number of steps between writing global quantities
/

! Parameters for time integration
&parameter
rand = 1         ! random phases if 1
cort = 7.5e-4    ! correlation time of the external forcing
seed = 1000      ! seed for the random number generator
/

! Boz size, if not present GHOST uses a 2.pi cubic box
&boxparams
Lx = 1.00        ! Length of the box in x
Ly = 1.00        ! Length of the box in y
Lz = 1.00        ! Length of the box in z
/

! Parameters for the velocity field
&velocity
f0 = 0.37714265  ! amplitude of the mechanical forcing
u0 = 1.00        ! amplitude of the initial velocity field
kdn = 2.00       ! minimum wavenumber
kup = 2.00       ! maximum wavenumber
nu = 3.e-4       ! kinematic viscosity
fparam0 = 0.90   ! fparam0-9 can be used to control the forcing
vparam0 = 0.10   ! idem for the initial velocity field
/
